7108 9 261 477 8272
7122 9 261 464 7944
7092 11 319 577 8294
7254 9 261 505 8244
7210 7 203 362 7750
6954 13 377 673 8272
7060 13 377 1152 8260
6830 12 348 842 8076
7000 8 232 435 8184
7032 6 174 313 7904
